50
     3     4    36    57    75    44    36    94    70    46    68    70    16    52    93    20    31    20    13    47    26    22    69    20     1    47    45    71    45    98    65     1    42    96    92    73    61    74    31    19    67    86    27    35    12    95    68    83    40    86
     1     3     6     3    10     4     2     9     2    10     5     7     5     8     3     1     1     7     4     6     2     2     8     4     6     3     9     9     8     5     1     4     1     6     3     2     4    10     3     4     5     6     4     3     7     6     9     1     2     8
  1136   935  1193  1114  1175  1155  1023   968   879  1152   990  1019  1118   820   833   913   848   838   841  1002   855   971  1244  1040   788  1119   866  1084   915  1110   989  1178  1142  1244  1016   773   784  1099   861   889  1062  1067  1071  1052   899  1158  1240   962   902  1047
